300
150 150
1 120 237
2 120 134
3 120 103
4 120 459
5 120 882
6 120 950
7 120 179
8 119 303
9 119 574
10 119 851
11 119 141
12 119 562
13 118 355
14 118 868
15 118 808
16 118 446
17 118 439
18 118 10
19 118 84
20 118 893
21 117 349
22 117 896
23 116 1
24 116 43
25 116 426
26 116 994
27 115 940
28 115 427
29 115 661
30 115 782
31 115 568
32 114 457
33 114 978
34 114 489
35 114 348
36 114 648
37 114 366
38 114 149
39 114 374
40 114 363
41 113 169
42 113 474
43 113 970
44 112 678
45 111 834
46 111 723
47 111 647
48 111 635
49 111 803
50 111 276
51 111 64
52 110 318
53 110 113
54 110 607
55 110 10
56 110 766
57 110 457
58 108 761
59 108 431
60 107 838
61 107 534
62 107 591
63 107 219
64 106 906
65 106 567
66 106 385
67 106 706
68 106 264
69 106 603
70 104 10
71 104 570
72 104 378
73 103 619
74 102 674
75 102 329
76 102 184
77 101 96
78 101 31
79 101 354
80 100 969
81 100 21
82 100 70
83 100 547
84 100 866
85 100 512
86 99 989
87 99 329
88 99 516
89 99 452
90 98 382
91 98 956
92 98 298
93 98 164
94 98 696
95 97 495
96 97 373
97 97 618
98 97 757
99 96 146
100 96 508
101 96 171
102 95 958
103 95 986
104 95 665
105 95 853
106 95 840
107 95 88
108 94 829
109 94 67
110 94 496
111 93 492
112 93 366
113 93 755
114 93 508
115 93 128
116 93 729
117 92 538
118 92 630
119 92 557
120 92 45
121 91 259
122 91 421
123 91 419
124 91 543
125 90 986
126 90 349
127 89 49
128 89 566
129 88 959
130 88 867
131 88 778
132 88 910
133 87 814
134 87 750
135 87 340
136 87 776
137 87 112
138 87 633
139 86 433
140 86 298
141 86 198
142 85 110
143 85 244
144 85 147
145 82 136
146 82 358
147 82 966
148 82 610
149 81 52
150 81 582
151 81 379
152 80 886
153 80 184
154 79 169
155 79 659
156 79 26
157 79 501
158 78 301
159 78 287
160 78 70
161 78 56
162 78 904
163 77 701
164 77 566
165 77 472
166 76 897
167 75 464
168 75 614
169 73 377
170 73 661
171 72 24
172 72 137
173 72 453
174 72 309
175 71 301
176 71 912
177 71 522
178 70 434
179 69 32
180 69 330
181 69 555
182 68 3
183 68 978
184 68 466
185 68 729
186 68 123
187 68 83
188 67 986
189 67 480
190 67 671
191 65 145
192 65 183
193 65 399
194 65 954
195 65 210
196 64 15
197 63 496
198 63 157
199 63 385
200 63 534
201 63 358
202 63 397
203 61 566
204 60 638
205 60 362
206 59 49
207 58 31
208 58 256
209 58 938
210 57 232
211 57 819
212 56 314
213 56 510
214 56 139
215 56 17
216 55 373
217 55 534
218 54 385
219 54 183
220 53 233
221 53 590
222 53 566
223 53 994
224 52 199
225 52 699
226 52 668
227 51 11
228 51 610
229 50 831
230 49 324
231 49 424
232 49 140
233 49 788
234 48 864
235 48 472
236 48 641
237 47 767
238 47 315
239 47 343
240 46 978
241 46 67
242 46 125
243 46 908
244 46 155
245 45 335
246 45 952
247 45 692
248 45 586
249 45 484
250 45 453
251 45 391
252 45 515
253 44 407
254 44 316
255 44 103
256 44 769
257 44 998
258 43 304
259 43 942
260 43 929
261 42 664
262 42 788
263 42 277
264 42 73
265 41 211
266 40 298
267 40 32
268 40 327
269 39 804
270 39 275
271 39 667
272 38 198
273 38 539
274 38 297
275 38 612
276 38 619
277 38 532
278 36 330
279 35 117
280 35 253
281 35 104
282 35 552
283 35 289
284 35 921
285 35 3
286 34 684
287 34 622
288 33 326
289 33 90
290 33 873
291 32 753
292 32 667
293 32 650
294 32 198
295 31 943
296 31 642
297 31 527
298 30 807
299 30 506
300 30 593
